language Essence 1.3

letting bot_end be [142, 91, 118, 50, 86, 5, 125, 103, 112, 25, 87, 23, 129, 33, 111; int(1..15)]
letting bot_start be [97, 27, 66, 141, 134, 44, 98, 6, 103, 116, 11, 40, 18, 105, 32; int(1..15)]
letting bots be 15
letting buffer_col be 2
letting buffer_row be 2
letting corridor_size be 1
letting n_shelves_col be 7
letting n_shelves_row be 1
letting shelf_col_size be 2
letting shelf_row_size be 1
